103
38
39
84
129
283
300
422
424
431
437
439
443
450
490
598
653
654
664
733
735
739
766
991
1013
1041
1133
1272
1285
1286
1291
1365
1368
1418
1466
1480
1566
1567
1569
1644
1645
1737
1739
1823
1886
2014
2021
2045
2085
2086
2089
2249
2315
2316
2433
2436
2437
2570
2575
2603
2759
2763
2823
2858
2859
2866
2881
2886
2898
2900
2960
3033
3040
3210
3316
3434
3437
3566
3591
3592
3614
3618
3620
3625
3629
3665
3670
3680
3736
3752
3756
3759
3766
3775
3776
3810
3878
3987
3995
4173
4174
4182
4184
4341